 convert from PWmat
           1
   7.14740000000000       0.000000000000000E+000  0.000000000000000E+000
  0.000000000000000E+000   10.1080000000000       0.000000000000000E+000
  0.000000000000000E+000  0.000000000000000E+000   23.0540000000000     
 C  
    80 
 Selective Dynamics
 DIRECT
 0.124329357532224       0.374644713248142       8.730873414445500E-002 T T T
 0.124268270980535       0.126747230780234       0.195871858725635      T T T
 0.122844252896450       0.374060277968328       0.306045546689415      T T T
 0.251661983394825       0.248765138668344       8.736760214990300E-002 T T T
 0.247935092871613       5.592838729740000E-004  0.195481355192376      T T T
 0.248082522946804       0.248964110751184       0.305650783918233      T T T
 0.376992033520807       0.249239930369220       0.140875318855688      T T T
 0.376392263816712       4.827437925800000E-004  0.250481470409125      T T T
 0.999010095229947       0.123811823434767       0.141650842248184      T T T
 0.997316275666662       0.373368782389617       0.251916060721888      T T T
 0.377642441823842       1.281677417180000E-004  0.142297547926826      T T T
 0.376409640591062       0.251434938454794       0.251424767547284      T T T
 4.098032186340000E-004  0.375404505264892       0.142259175150784      T T T
 0.998774877900518       0.124148163669561       0.251706535410440      T T T
 0.127587846982476       0.125295663355524       8.635823885129000E-002 T T T
 0.122773473235130       0.373140548420356       0.196356739781888      T T T
 0.124846922626606       0.126648027715353       0.305560664462466      T T T
 0.248299282550337       0.998727425854826       8.648668598225299E-002 T T T
 0.251027778061906       0.249722251277080       0.197050197611285      T T T
 0.248266677400827       0.999709709895214       0.306353868911780      T T T
 0.124159421924581       0.874418402155061       8.716563165432099E-002 T T T
 0.127638856979107       0.625401744729633       0.196117336928452      T T T
 0.122517836356734       0.874332648326592       0.306555198121979      T T T
 0.249049777831923       0.750923302780128       8.614103816225900E-002 T T T
 0.251123865243766       0.501824122424732       0.196667349360733      T T T
 0.251926143907591       0.748649011336231       0.305085357808061      T T T
 0.377050943091198       0.748205648306493       0.140944350708559      T T T
 0.372764136602558       0.500895302882827       0.251665996207495      T T T
 7.032486999550000E-004  0.624890188573621       0.141645885563293      T T T
 2.510549924058000E-003  0.876004005170391       0.250851451929051      T T T
 0.377093259456380       0.498943547620011       0.140862733367133      T T T
 0.375665198434151       0.748373709319247       0.251488989998474      T T T
 0.997925966673835       0.872996437336772       0.142289766693476      T T T
 3.638427418180000E-004  0.624221358327428       0.251660498337247      T T T
 0.126586201679511       0.624787663766972       8.600587137939000E-002 T T T
 0.124626676546527       0.875309361749003       0.196833512916372      T T T
 0.126441395262674       0.626602641627974       0.305523615996756      T T T
 0.247953573242083       0.498048558242278       8.740833107494900E-002 T T T
 0.251615182396401       0.751249564326617       0.196428062145289      T T T
 0.251672854105543       0.499543206939170       0.306437982905513      T T T
 0.627483480552450       0.376277216424143       8.749387021711000E-002 T T T
 0.626254994987776       0.125059529338819       0.197165281696144      T T T
 0.623522955893029       0.375438473344231       0.306275747827151      T T T
 0.750631650492890       0.250741673084778       8.756646985985000E-002 T T T
 0.751659540090619       0.998735022178231       0.196780383744603      T T T
 0.748200317592328       0.251281665628660       0.305522155186072      T T T
 0.872851194509872       0.248614378348550       0.142165474726349      T T T
 0.877261090720926       3.501726486270000E-004  0.251340934561599      T T T
 0.497974271011659       0.125361154477977       0.140819800616321      T T T
 0.499717846983452       0.374609137376638       0.251720174849952      T T T
 0.874159652711689       8.920170456750000E-004  0.140822323206464      T T T
 0.872607159786928       0.250121739740851       0.250944329560393      T T T
 0.501126221033195       0.375904378864198       0.141250789670925      T T T
 0.499524422204990       0.124906180139944       0.251242994868407      T T T
 0.622516762742317       0.123336339241335       8.646056599270700E-002 T T T
 0.625192052827808       0.376523683839638       0.196997037731722      T T T
 0.627063661663782       0.123644856754516       0.306160875792700      T T T
 0.752196071642638       0.999531129378851       8.714981265330600E-002 T T T
 0.747214906548765       0.248775908954808       0.195855236314205      T T T
 0.748087416690408       8.513128235210000E-004  0.305426558057770      T T T
 0.622939851358839       0.876185195869023       8.756840490862200E-002 T T T
 0.626249476760820       0.624833460753013       0.196068719845461      T T T
 0.626989663488943       0.876522595228265       0.306156983606566      T T T
 0.748770938971064       0.751146543105188       8.600671243674900E-002 T T T
 0.752041320538501       0.499803490061653       0.195753143426517      T T T
 0.750291328615007       0.750313194231151       0.306551931963447      T T T
 0.874522511228270       0.751478752630451       0.141415143164405      T T T
 0.873018177546560       0.501388188393784       0.251624602121811      T T T
 0.502432470986317       0.623790546279732       0.141319066472195      T T T
 0.502079314758074       0.873201211035069       0.251131323177527      T T T
 0.874358089000711       0.500953828639982       0.142012002879056      T T T
 0.875519859528156       0.751396431011919       0.251836774906307      T T T
 0.499897673505898       0.875303090731118       0.140840840538629      T T T
 0.497826263227856       0.623797159653887       0.250482038378453      T T T
 0.626039267788912       0.624141322329678       8.691491751009700E-002 T T T
 0.623758897643849       0.874408127349426       0.195780765704147      T T T
 0.627155657914961       0.623275115863058       0.305382749162201      T T T
 0.751323382414666       0.499654888925611       8.620807520830000E-002 T T T
 0.751636240806795       0.749851127410099       0.196208874949484      T T T
 0.749234786110746       0.498038658472043       0.306481173452135      T T T
