 convert from PWmat
           1
   10.0000000000000       0.000000000000000E+000  0.000000000000000E+000
  0.000000000000000E+000   10.0000000000000       0.000000000000000E+000
  0.000000000000000E+000  0.000000000000000E+000   10.0000000000000     
 O  C  H  
     1     2     6 
 Selective Dynamics
 DIRECT
 0.608420542484461       0.454996480421592       0.500690607820971      T T T
 0.465891423867290       0.455788161184915       0.499276258593476      T T T
 0.412914379053273       0.598594338574375       0.500128350103308      T T T
 0.433323091735395       0.399141096487238       0.591856480210816      T T T
 0.427081089904914       0.403166989017884       0.406699222882649      T T T
 0.302139048680976       0.597705663028515       0.498422454131481      T T T
 0.452411883031903       0.650386648396659       0.407781722501555      T T T
 0.451460487132110       0.653175345016585       0.585190431542494      T T T
 0.634441888893651       0.358683378802843       0.500562973960935      T T T
