 convert from PWmat
           1
   10.9369915700000       0.000000000000000E+000  0.000000000000000E+000
  0.000000000000000E+000   10.9369915700000       0.000000000000000E+000
  0.000000000000000E+000  0.000000000000000E+000   10.9369915700000     
 Si 
    64 
 Selective Dynamics
 DIRECT
 0.124448437405686       0.374699213672764       0.126038031479496      T T T
 0.124535851304074       0.376479138374374       0.624057447897013      T T T
 0.123559189774157       0.874204460286916       0.125167155050671      T T T
 0.126145038011984       0.873954581072721       0.626151629924501      T T T
 0.623790060762873       0.375473466069297       0.123303467779278      T T T
 0.624002466995544       0.374123049575323       0.624404824805930      T T T
 0.626157470619330       0.874356567380462       0.123715017099645      T T T
 0.625798529160937       0.875408683881960       0.623633524491530      T T T
 0.999442384418415       0.998994163846925       0.250212398868860      T T T
 0.998428443291120       0.998619083546542       0.751403463866458      T T T
 1.546757829788000E-003  0.500108515483709       0.251461053468785      T T T
 8.089301928690000E-004  0.501214779442635       0.750454882118848      T T T
 0.500280245666973       3.424377379760000E-004  0.251386967443607      T T T
 0.499301585423676       0.999278876028873       0.750998892612610      T T T
 0.501399000598247       0.500250220954825       0.249202819913683      T T T
 0.498641062727801       0.498425854691356       0.749993668265902      T T T
 0.124758000940306       0.126395161458169       0.374230938718756      T T T
 0.124132134519713       0.123922666697717       0.874450660039763      T T T
 0.125641353352945       0.624764868805103       0.376332616055309      T T T
 0.124112678075408       0.624754195203378       0.875762305168923      T T T
 0.624346724233119       0.124507720380111       0.375761717920795      T T T
 0.626553510034577       0.125340106804173       0.874531440585614      T T T
 0.623363801381686       0.624434959052911       0.376151210070186      T T T
 0.624581342094833       0.625781713532630       0.873783364160811      T T T
 6.988676340940000E-004  0.251544234207189       5.934143451960000E-004 T T T
 1.303279092973000E-003  0.248856282797169       0.498313117864807      T T T
 1.192726976134000E-003  0.748480943837658       0.998848318394665      T T T
 0.998626729341147       0.750757911158717       0.500920654223088      T T T
 0.500455891638728       0.249907025743091       2.028513503640000E-004 T T T
 0.501537809246546       0.250849965259988       0.499347912292995      T T T
 0.501218066723887       0.749105643908359       0.998690714343796      T T T
 0.500363271955565       0.748623237035710       0.500578922381040      T T T
 0.373793432866248       0.373303842310583       0.376446034764512      T T T
 0.375252782359210       0.374340799186846       0.875910056587357      T T T
 0.375799428245897       0.874820256181987       0.373522498371352      T T T
 0.374750392445928       0.875261895883102       0.875914229669272      T T T
 0.875712441928687       0.376356827162939       0.374159468600092      T T T
 0.873925168812807       0.373347953351804       0.876230240752076      T T T
 0.875992986061027       0.876057837353234       0.375131403883313      T T T
 0.876151626038693       0.874613378818054       0.875924679874505      T T T
 0.251336548191386       1.081256957786000E-003  1.395497503029000E-003 T T T
 0.250725125625423       5.039701790000000E-005  0.501554802944384      T T T
 0.248965439664646       0.500371213762228       6.117007086209999E-004 T T T
 0.250528295664634       0.500627931864635       0.501535554664918      T T T
 0.751019527199386       0.998929117927407       8.116547431230000E-004 T T T
 0.749072948427610       1.085096913147000E-003  0.499156442200719      T T T
 0.748678700420861       0.498826957076443       1.206056194344000E-003 T T T
 0.751318656324473       0.500296434836186       0.500292977395683      T T T
 0.373822308957603       0.125305724812185       0.123607818469717      T T T
 0.374866100356809       0.124669114056893       0.626025262700797      T T T
 0.374461966278191       0.625755142437191       0.123612682718898      T T T
 0.373532734319735       0.625103038032919       0.624527246007730      T T T
 0.875709126511164       0.125765603394796       0.124439957256861      T T T
 0.874750270762136       0.124920545768852       0.625103882746829      T T T
 0.873363434122369       0.623591638918782       0.124400434927095      T T T
 0.875088825538886       0.626289892300035       0.626229959866048      T T T
 0.251084936438547       0.248852871447369       0.250389855063181      T T T
 0.251464800117002       0.249603096187768       0.750731038019014      T T T
 0.248358948398568       0.748963734825771       0.249025373329019      T T T
 0.249005357577854       0.750720685506098       0.748971790938131      T T T
 0.748616686374560       0.251003385288113       0.251539444721982      T T T
 0.750721814475974       0.249859013797580       0.749437564798344      T T T
 0.751040643130481       0.751288864841149       0.250382334008975      T T T
 0.749414449322337       0.750970622404887       0.748523990672594      T T T
