 convert from PWmat
           1
   7.14740000000000       0.000000000000000E+000  0.000000000000000E+000
  0.000000000000000E+000   10.1080000000000       0.000000000000000E+000
  0.000000000000000E+000  0.000000000000000E+000   23.0540000000000     
 C  
    80 
 Selective Dynamics
 DIRECT
 0.123947696902204       0.374497541779192       8.753142107268801E-002 T T T
 0.123947098287684       0.127470956254517       0.195669654815974      T T T
 0.121847267149584       0.373671029803744       0.306081406115447      T T T
 0.252454306262616       0.248253626969221       8.761465886042800E-002 T T T
 0.247097860848201       7.909456128610001E-004  0.195117401489844      T T T
 0.247392267663021       0.248535029025464       0.305523102140287      T T T
 0.377792959357410       0.248925106065987       0.140599653834185      T T T
 0.376944815500352       6.827084561530000E-004  0.250188322928760      T T T
 0.998624247104228       0.123319678899966       0.141696407623482      T T T
 0.996228818358960       0.372693115730000       0.252217143114908      T T T
 0.378712739112327       1.812632116300000E-004  0.142610984976772      T T T
 0.376969389745837       0.252029316076871       0.251522352478032      T T T
 6.037229710870000E-004  0.375572056695353       0.142556718670441      T T T
 0.998291601920042       0.123795325960601       0.251920825886822      T T T
 0.128555902070508       0.125418093331307       8.618722154199100E-002 T T T
 0.121833140462575       0.372370336945858       0.196355381514060      T T T
 0.124679468470577       0.127330663958548       0.305395679139119      T T T
 0.247698752757875       0.998200299007726       8.636883710243699E-002 T T T
 0.251471569863591       0.249607204294837       0.197336081057487      T T T
 0.247652684375448       0.999589440056851       0.306517404706530      T T T
 0.123707379827370       0.874177535330053       8.732904139266300E-002 T T T
 0.128713826855895       0.625568155124924       0.196016817633331      T T T
 0.121385648652467       0.874056179943120       0.306802164932187      T T T
 0.248760082095068       0.751305786502181       8.588003568945400E-002 T T T
 0.251607454859906       0.502579698682152       0.196794653491950      T T T
 0.252827963107888       0.748089403190034       0.304723474229503      T T T
 0.377876264613116       0.747462391187809       0.140697282657084      T T T
 0.371813886007031       0.501266140082705       0.251863502356679      T T T
 1.018709179912000E-003  0.624844697174901       0.141689402865312      T T T
 3.574655102514000E-003  0.876419882850919       0.250711560880088      T T T
 0.377936115155817       0.498505949610276       0.140581855084025      T T T
 0.375916568203862       0.747700074956300       0.251613185123621      T T T
 0.997091067433960       0.872166526483247       0.142599981676179      T T T
 5.387582952030000E-004  0.623898818991954       0.251855731009384      T T T
 0.127139375087435       0.624699717102671       8.568890555624600E-002 T T T
 0.124453956794356       0.875437504000163       0.197029640586442      T T T
 0.126934377940032       0.627266521611810       0.305343298312839      T T T
 0.247209830477456       0.497240230344975       8.767225208669900E-002 T T T
 0.252302290651738       0.751767151865121       0.196456251940883      T T T
 0.252469735537584       0.499354037650717       0.306636352511640      T T T
 0.628408320692791       0.376806263267197       8.779324365462300E-002 T T T
 0.626756754338911       0.125084188244039       0.197498830605027      T T T
 0.622807079448365       0.375620104046131       0.306406974965264      T T T
 0.750997211019068       0.251048912579908       8.789588944765900E-002 T T T
 0.752365014321924       0.998211051533352       0.196954506337903      T T T
 0.747558833105641       0.251812591061562       0.305341188434157      T T T
 0.871936905221069       0.248040421994123       0.142424207661883      T T T
 0.878173549591448       4.952149589370000E-004  0.251403786509606      T T T
 0.497159353949258       0.125510742264365       0.140521138457379      T T T
 0.499625192860277       0.374447238396804       0.251940122321583      T T T
 0.873787354249107       1.261499828102000E-003  0.140524704719464      T T T
 0.871591867531076       0.250172154923246       0.250842910607828      T T T
 0.501616909334977       0.376278979098318       0.141130644697618      T T T
 0.499351618546846       0.124867304095078       0.251265280758123      T T T
 0.621384321010747       0.122647244531600       8.633194250295401E-002 T T T
 0.625253516114969       0.377154813684255       0.197260898536961      T T T
 0.627814396387451       0.123083579631672       0.306244510737359      T T T
 0.753209657335287       0.999336928723461       8.730664096822199E-002 T T T
 0.746079360970845       0.248268876000829       0.195646151612905      T T T
 0.747399162288481       1.203935761869000E-003  0.305205978429790      T T T
 0.621982651144642       0.876676141174898       8.789865889366499E-002 T T T
 0.626748945172108       0.624764477772540       0.195948061809346      T T T
 0.627709749539321       0.877153222211591       0.306239004894305      T T T
 0.748365760314961       0.751621457521038       8.569006688661800E-002 T T T
 0.752904941485656       0.499722091929539       0.195501771890647      T T T
 0.750515974553293       0.750442873208573       0.306797514499482      T T T
 0.874300528427527       0.752091277579891       0.141363084681797      T T T
 0.872173142657180       0.501963196967988       0.251804963314537      T T T
 0.503464194961206       0.623289588761305       0.141227210911446      T T T
 0.502964777877815       0.872456137878626       0.251107356222178      T T T
 0.874067966708096       0.501348927724952       0.142207164259486      T T T
 0.875711047442280       0.751974864761268       0.252105025511177      T T T
 0.499879451926931       0.875428633562884       0.140550893488601      T T T
 0.496950091501491       0.623298930213155       0.250189138225331      T T T
 0.626365913566465       0.623785602733595       8.697449735604400E-002 T T T
 0.623226741272037       0.874162965518483       0.195540830839423      T T T
 0.627944485301779       0.622560647405978       0.305144089785280      T T T
 0.751975474205691       0.499511898311160       8.597482111442700E-002 T T T
 0.752332066494768       0.749789461069976       0.196146275308930      T T T
 0.749021762704165       0.497226254941072       0.306697429990865      T T T
