 convert from PWmat
           1
   10.7124187100000       0.000000000000000E+000  0.000000000000000E+000
  0.000000000000000E+000   10.7124187100000       0.000000000000000E+000
  0.000000000000000E+000  0.000000000000000E+000   10.7124187100000     
 Mg 
    54 
 Selective Dynamics
 DIRECT
 0.999225136118589       0.999577438548088       1.458276663163000E-003 T T T
 0.999347940591222       2.077964419359000E-003  0.332009189555979      T T T
 0.997975879333503       0.998882384688205       0.666901493949836      T T T
 1.608605106044000E-003  0.331864677357639       1.617862890625000E-003 T T T
 0.998300217965492       0.333998483143320       0.330949962102940      T T T
 0.998598614661912       0.332101352112415       0.665830534899829      T T T
 1.626071732842000E-003  0.665762740206143       0.998194789452682      T T T
 1.121811987222000E-003  0.667240806912117       0.331413639326132      T T T
 0.999216634301734       0.665253617718577       0.666965052270474      T T T
 0.331125534163584       0.998060019781318       1.971653364891000E-003 T T T
 0.335506294116543       1.524472477270000E-004  0.335385893265925      T T T
 0.334469759452259       1.706580112328000E-003  0.667305706683982      T T T
 0.333727037756578       0.333814408889904       1.948480295044000E-003 T T T
 0.332352168397885       0.332320263247584       0.334736626591629      T T T
 0.335298718045256       0.333684855582071       0.665546749481684      T T T
 0.331424232571307       0.664455229401077       0.999991103916876      T T T
 0.332993361189589       0.668626656338614       0.332252917656882      T T T
 0.332114114578571       0.665153175179452       0.665894926397091      T T T
 0.667567670203916       0.999669673812025       1.872122862606000E-003 T T T
 0.665420112697025       0.999654679213037       0.334404255829495      T T T
 0.665748912612569       0.999308420794449       0.667736763500848      T T T
 0.668849111584551       0.333811132194499       0.999341743318015      T T T
 0.664368053027154       0.332539536015320       0.334950609258400      T T T
 0.666078513264179       0.334431524547143       0.664957475543656      T T T
 0.667648470145104       0.668836082582301       8.336559366410000E-004 T T T
 0.668497575159450       0.665059915354511       0.330963518451447      T T T
 0.668342267201556       0.664532620689588       0.665048726957671      T T T
 0.164737429797544       0.167731415296237       0.167960045343618      T T T
 0.167307126249765       0.166536050999716       0.500284973991868      T T T
 0.168827055362011       0.167860738848129       0.832417248185644      T T T
 0.168377865444702       0.498743564111447       0.164827318183051      T T T
 0.167177007388493       0.498065854587161       0.500813297639504      T T T
 0.164971619906854       0.497617152611717       0.835364792700849      T T T
 0.167021785412280       0.832407257320241       0.167945158468580      T T T
 0.167789739972832       0.833080820422817       0.497924329509852      T T T
 0.166316003399001       0.833701257238758       0.834617686890867      T T T
 0.501000872750840       0.168572803605732       0.165485845216620      T T T
 0.498490022238373       0.164345789312283       0.501728299879880      T T T
 0.501394994202275       0.168152767973061       0.833517935148716      T T T
 0.501617859131773       0.499456854011682       0.167965700615167      T T T
 0.501877647627377       0.501519001089735       0.501960461989341      T T T
 0.501018691280742       0.500070799522669       0.835517595688139      T T T
 0.498546598638624       0.833854834148270       0.167526013738750      T T T
 0.500742175872743       0.834215482337232       0.502157220313408      T T T
 0.501432281028833       0.831828905916809       0.834473584891464      T T T
 0.832030965892487       0.168191063234974       0.165481595526358      T T T
 0.831477106949071       0.165018718853835       0.501694325123737      T T T
 0.835185843889981       0.167083112364990       0.833744922159729      T T T
 0.831678855680374       0.500429497131983       0.164710859666342      T T T
 0.833145224294265       0.499535153047593       0.501440336980314      T T T
 0.832577479068652       0.501060860036073       0.831384361345612      T T T
 0.831272047327728       0.833478086617530       0.166002518424881      T T T
 0.834329549321458       0.834408888417759       0.499213222921283      T T T
 0.832982500354291       0.833221713078907       0.833479273980424      T T T
