 convert from PWmat
           1
   8.83811617300000       1.399780315000000E-003  2.597709744000000E-003
  1.399782071000000E-003   8.83811875300000       2.588522045000000E-003
  3.723521192000000E-003  3.710480781000000E-003   12.6327377900000     
 Li Ge P  S  
    20     2     4    24 
 Selective Dynamics
 DIRECT
 0.189152005791294       0.237412086305774       0.167338909016285      T T T
 0.577839953998720       0.784914166965465       0.237933061993985      T T T
 0.155167892904777       0.629159097004621       0.756435460024337      T T T
 0.677261274214856       0.270061205906395       0.844065168647804      T T T
 0.200525135305981       0.749334536731106       0.308625991001644      T T T
 0.714350184304699       0.256102606412570       0.318815939868063      T T T
 0.229460486209641       0.201830208193703       0.675931544960157      T T T
 0.720414319212617       0.709365457821422       0.797688851748959      T T T
 0.924984863723311       2.310662828002700E-002  0.901487929827215      T T T
 0.899908576636247       0.913591317727374       0.397394980819638      T T T
 0.431864695692447       0.467387437849162       0.539600824367374      T T T
 0.411718573125274       0.466787928231402       2.606527661851000E-002 T T T
 0.211209016452609       0.787909902509012       0.994692745069320      T T T
 0.698256832794594       0.320130949291618       7.829819060116300E-002 T T T
 0.211485326245163       0.225675495735983       0.490521001590458      T T T
 0.635259614157633       0.705016595843445       0.512279829928326      T T T
 0.208019985216858       0.725972234625385       0.571186471278362      T T T
 0.742909330612276       0.258282499255780       0.573263747231783      T T T
 0.236280318446059       0.237216548777872       0.925683921998964      T T T
 0.710322235157771       0.765916350863691       1.683548604775600E-002 T T T
 0.451956690103799       0.494587491430864       0.805782526760388      T T T
 0.408717600262459       0.469695346735459       0.318438975068149      T T T
 0.944508002351763       0.994926647663129       0.656116320993787      T T T
 0.973034435935029       6.647869754805000E-003  0.151904473497861      T T T
 0.971048443861224       0.477232112837640       0.486229579709051      T T T
 0.467205994685887       0.998616132283076       0.980327306052658      T T T
 0.978572702855132       0.655429576219601       0.397111323745011      T T T
 0.955537736173814       0.276755530664579       0.408357488402821      T T T
 0.279050309019702       0.992684560438243       0.866486885853502      T T T
 0.648315060062375       0.958596496723318       0.878925754696314      T T T
 0.428545581242061       0.198692795454652       6.068899038556700E-002 T T T
 0.453181080095301       0.807190007673402       6.619213636376600E-002 T T T
 0.179227061035949       0.462343933027371       0.565659247509365      T T T
 0.797397001864809       0.511758671397485       0.589313677004294      T T T
 0.973284841920391       0.805716514108020       6.796860633921700E-002 T T T
 0.940708860099978       0.203396246000267       5.185183824634500E-002 T T T
 0.128613906161110       0.985939489264788       0.562975239717118      T T T
 0.725501388996693       0.983285444013097       0.582681264220097      T T T
 0.456103519814464       0.282607851743405       0.431398904477250      T T T
 0.443355643481849       0.718370118534026       0.400878734405232      T T T
 0.227380311901644       0.513055024603832       0.897333736560445      T T T
 0.655398126433466       0.488279274004341       0.913671455666865      T T T
 0.941157846942962       0.195429890997207       0.732728770142879      T T T
 0.974458931197495       0.834788929685832       0.770619894345340      T T T
 0.770756303686934       0.976162300657671       0.224377792600893      T T T
 0.146837672157504       3.176909478161000E-003  0.261648165219944      T T T
 0.443101707909814       0.692848888757694       0.690046331272136      T T T
 0.475514987911142       0.293130217424930       0.696234459467324      T T T
 0.623639317032637       0.504795551129980       0.210441616255002      T T T
 0.223762086416103       0.491635263327176       0.204204646543676      T T T
