 convert from PWmat
           1
   10.0000000000000       0.000000000000000E+000  0.000000000000000E+000
  0.000000000000000E+000   10.0000000000000       0.000000000000000E+000
  0.000000000000000E+000  0.000000000000000E+000   10.0000000000000     
 O  C  H  
     1     2     6 
 Selective Dynamics
 DIRECT
 0.608469705506719       0.455023290740517       0.500598083877263      T T T
 0.465939172029343       0.455635998188772       0.499373221538039      T T T
 0.413062599117012       0.598676177847789       0.500111154414342      T T T
 0.432916480340800       0.399512332475530       0.591447528330000      T T T
 0.427510748184989       0.402998857624010       0.407301673837592      T T T
 0.302493280112348       0.598017074436658       0.498633805214096      T T T
 0.452000856688190       0.650615136056959       0.408238029593072      T T T
 0.451176923676095       0.653030218170743       0.585675677270883      T T T
 0.634639901914452       0.359040558830342       0.500487549796626      T T T
