 convert from PWmat
           1
   7.14740000000000       0.000000000000000E+000  0.000000000000000E+000
  0.000000000000000E+000   10.1080000000000       0.000000000000000E+000
  0.000000000000000E+000  0.000000000000000E+000   23.0540000000000     
 C  
    80 
 Selective Dynamics
 DIRECT
 0.124746090612273       0.374805408941455       8.706558354890000E-002 T T T
 0.124618957624617       0.125956999034316       0.196092644029236      T T T
 0.123932855986153       0.374485295834391       0.306006391985252      T T T
 0.250796850543498       0.249323655395223       8.709784232710301E-002 T T T
 0.248849261775581       3.063337314100000E-004  0.195878754178602      T T T
 0.248836208781304       0.249432622657019       0.305790198928334      T T T
 0.376117507136564       0.249583685242637       0.141176315931199      T T T
 0.375788935763205       2.644035090990000E-004  0.250801556482438      T T T
 0.999431400612831       0.124349193264626       0.141601089672995      T T T
 0.998503664141177       0.374106538988026       0.251587310562393      T T T
 0.376473790277108       7.019309887399999E-005  0.141955307787414      T T T
 0.375798453659591       0.250785940896024       0.251318215114158      T T T
 1.980633393640000E-004  0.375221556807045       0.141934289067068      T T T
 0.999302564206145       0.124533425165370       0.251472552853100      T T T
 0.126530833115279       0.125161982758456       8.654497168260700E-002 T T T
 0.123800217263086       0.373981537966594       0.196358222866835      T T T
 0.125029764871052       0.125902661068114       0.305740811002491      T T T
 0.248954997629101       0.999302992673332       8.661536450658400E-002 T T T
 0.250543204307450       0.249847870425322       0.196738043095727      T T T
 0.248937092907351       0.999841031850469       0.306175305103820      T T T
 0.124653004129990       0.874681403276928       8.698720548664000E-002 T T T
 0.126465103459674       0.625220042161625       0.196227093377416      T T T
 0.123754065697889       0.874634522588484       0.306285536460826      T T T
 0.249366094966050       0.750505670970548       8.642602528390000E-002 T T T
 0.250595836481136       0.500999112989121       0.196528346700955      T T T
 0.250941452631027       0.749260044301232       0.305480496437645      T T T
 0.376149779196345       0.749017206544297       0.141214122914478      T T T
 0.373801709845239       0.500490387844840       0.251450340361948      T T T
 3.587991887750000E-004  0.624939860374202       0.141598369267717      T T T
 1.348659507191000E-003  0.875549910686710       0.251004198173019      T T T
 0.376172950092414       0.499421358408122       0.141169422773459      T T T
 0.375390729206455       0.749109246864433       0.251353382044814      T T T
 0.998837588424674       0.873902612296811       0.141951044711037      T T T
 1.728534398650000E-004  0.624573537200849       0.251447324888411      T T T
 0.125982194768781       0.624883692231560       8.635196456626899E-002 T T T
 0.124815268265574       0.875169443950809       0.196619362224363      T T T
 0.125903110269705       0.625877754834088       0.305720503854438      T T T
 0.248765661753942       0.498931166894674       8.712015721716600E-002 T T T
 0.250864932784438       0.750684413425134       0.196397281867156      T T T
 0.250802743783731       0.499749759813707       0.306221384256222      T T T
 0.626473652841852       0.375699553172930       8.716698605645100E-002 T T T
 0.625707126794424       0.125032604419885       0.196801081531880      T T T
 0.624304617327966       0.375240151809650       0.306132461658366      T T T
 0.750232497025027       0.250406200020364       8.720677847787800E-002 T T T
 0.750889236773526       0.999307142757408       0.196590260271274      T T T
 0.748900750869735       0.250701951155834       0.305719751757425      T T T
 0.873849501805440       0.249241078040845       0.141882965699599      T T T
 0.876264782048711       1.918017715740000E-004  0.251272306875587      T T T
 0.498864074336099       0.125197820421340       0.141145908135937      T T T
 0.499819015495719       0.374785913955664       0.251480015451541      T T T
 0.874566163294145       4.885808884320000E-004  0.141147291146597      T T T
 0.873715751650098       0.250066691688765       0.251055068340223      T T T
 0.500590441255921       0.375495354990438       0.141381975286734      T T T
 0.499713105540493       0.124948628673124       0.251218661031661      T T T
 0.623753269454446       0.124088757851605       8.660100925259701E-002 T T T
 0.625124941412707       0.375834556737256       0.196708929613087      T T T
 0.626243938671449       0.124257712065666       0.306069555270366      T T T
 0.751089343166163       0.999743175974447       8.697857270458299E-002 T T T
 0.748454802333141       0.249329535365233       0.196083534715220      T T T
 0.748838917773343       4.662858345270000E-004  0.305667407704116      T T T
 0.623985012850782       0.875649135470436       8.720780245303500E-002 T T T
 0.625704110031710       0.624908782878645       0.196200465671643      T T T
 0.626203405609373       0.875834017197278       0.306067425027083      T T T
 0.749213351250580       0.750627986744615       8.635245591933800E-002 T T T
 0.751098337718173       0.499892368221040       0.196027614582671      T T T
 0.750046038987472       0.750171598490254       0.306283781783422      T T T
 0.874764892991009       0.750809940107728       0.141471985526686      T T T
 0.873940866355681       0.500760339788674       0.251427666757108      T T T
 0.501305937422206       0.624337538956492       0.141419363038674      T T T
 0.501112482593224       0.874014752194216       0.251157492560314      T T T
 0.874674871888656       0.500522422187091       0.141798907273232      T T T
 0.875311102527685       0.750764842477470       0.251543873590321      T T T
 0.499917569544759       0.875166011224235       0.141157432080187      T T T
 0.498782950172911       0.624341173558065       0.250801854396551      T T T
 0.625682605114646       0.624529730541712       8.684986261378901E-002 T T T
 0.624339956171898       0.874675818163944       0.196042749223857      T T T
 0.626294341759507       0.624055239924328       0.305643339984006      T T T
 0.750611367081738       0.499811019567577       8.646276403216099E-002 T T T
 0.750876472679513       0.749918460537579       0.196277227142418      T T T
 0.749467385161748       0.498925717285754       0.306245044162452      T T T
