 convert from PWmat
           1
   10.0000000000000       0.000000000000000E+000  0.000000000000000E+000
  0.000000000000000E+000   10.0000000000000       0.000000000000000E+000
  0.000000000000000E+000  0.000000000000000E+000   10.0000000000000     
 O  C  H  
     1     2     6 
 Selective Dynamics
 DIRECT
 0.608604021381383       0.455096537893986       0.500345303762139      T T T
 0.466069622434040       0.455220281152277       0.499638129229035      T T T
 0.413467543861849       0.598899766900810       0.500064174918414      T T T
 0.431805597351829       0.400526568057140       0.590330251013759      T T T
 0.428684596436047       0.402539514113600       0.408947600455564      T T T
 0.303461058380493       0.598867866225761       0.499211227110036      T T T
 0.450877911833915       0.651239375953801       0.409484683750949      T T T
 0.450402213907092       0.652633724254361       0.587001393254996      T T T
 0.635180883547838       0.360016392812920       0.500281487147616      T T T
