 convert from PWmat
           1
   10.0000000000000       0.000000000000000E+000  0.000000000000000E+000
  0.000000000000000E+000   10.0000000000000       0.000000000000000E+000
  0.000000000000000E+000  0.000000000000000E+000   10.0000000000000     
 C  H  
     1     4 
 Selective Dynamics
 DIRECT
 0.453522153693573       0.489748210138009       0.515704871018876      T T T
 0.516314548021497       0.556595917362901       0.576462128362908      T T T
 0.387292748607096       0.424760318502786       0.578867733427430      T T T
 0.392898320330153       0.551123203720754       0.454097267559737      T T T
 0.514697840273998       0.427511238945079       0.447923037687864      T T T
