 convert from PWmat
           1
   10.0000000000000       0.000000000000000E+000  0.000000000000000E+000
  0.000000000000000E+000   10.0000000000000       0.000000000000000E+000
  0.000000000000000E+000  0.000000000000000E+000   10.0000000000000     
 C  H  
     1     4 
 Selective Dynamics
 DIRECT
 0.453236133121289       0.489592233096532       0.516243156708269      T T T
 0.515483707194026       0.559243626179131       0.574774926811456      T T T
 0.384713648698106       0.423336276053413       0.579166946629271      T T T
 0.394947978354486       0.549251867028185       0.456158723572094      T T T
 0.512532006868483       0.428358760350470       0.444886186162110      T T T
