 convert from PWmat
           1
   10.0000000000000       0.000000000000000E+000  0.000000000000000E+000
  0.000000000000000E+000   10.0000000000000       0.000000000000000E+000
  0.000000000000000E+000  0.000000000000000E+000   10.0000000000000     
 C  H  
     1     4 
 Selective Dynamics
 DIRECT
 0.453421358998575       0.489693243258540       0.515894564863101      T T T
 0.516021756677408       0.557528979626368       0.575867552369931      T T T
 0.386383864373287       0.424258480739154       0.578973177253298      T T T
 0.393620627308849       0.550463737831086       0.454823732192531      T T T
 0.513934592666385       0.427809908585790       0.446852840111355      T T T
