 convert from PWmat
           1
   10.0000000000000       0.000000000000000E+000  0.000000000000000E+000
  0.000000000000000E+000   10.0000000000000       0.000000000000000E+000
  0.000000000000000E+000  0.000000000000000E+000   10.0000000000000     
 C  H  
     1     4 
 Selective Dynamics
 DIRECT
 0.453175773563522       0.489559316914419       0.516356752334992      T T T
 0.515308373005578       0.559802378061791       0.574418872914017      T T T
 0.384169375505795       0.423035757206817       0.579230090257007      T T T
 0.395380522247865       0.548856954682214       0.456593757221136      T T T
 0.512074946225922       0.428537614678391       0.444245312627613      T T T
